db/data/749026682186563124911150623915962960.z3.out
-------------------
2500.103062697
